\* module_5 *\
Maximize
OBJ: 60 Bedroom + 48 Dining_Room + 14 Gaming_Computer + 31 Sofa + 10 TV
Subject To
_C1: 800 Bedroom + 600 Dining_Room + 300 Gaming_Computer + 400 Sofa + 200 TV
 <= 1100
Binaries
Bedroom
Dining_Room
Gaming_Computer
Sofa
TV
End
